2011
3
15, 125, 84, 20, 128, 60, 6, 19, 41, 33, 9, 27, 152, 133, 37, 88, 113, 59, 147, 131, 73, 51, 50, 37, 67, 39, 133, 142, 57, 7, 101, 104
74, 72, 83, 33, 14, 75, 59, 16, 55, 85, 81, 97, 52, 70, 35, 75, 42, 67, 59, 27, 19, 79, 42, 74, 95, 83, 81, 71, 57, 32, 93, 69
2, 2, 3, 3, 3, 1, 2, 2, 3, 2, 1, 2, 2, 1, 3, 3, 3, 1, 1, 1, 3, 1, 3, 3, 1, 2, 1, 3, 1, 3, 2, 3